Cl Te Bi 
 1.0000000000000000
     4.3029926600000001    0.0000000000000000    0.0000000000000000
    -2.1514963299738872    3.7265009600184271    0.0000000000000000
     0.0000000000000009    0.0000000000000015   14.1416447600000001
  Cl Te Bi
   2   2   2
Cartesian
  0.0000000000000000  0.0000000000000000  0.2874147881022400
  0.0000000000000005  0.0000000000000008  7.3582371681022405
  2.1514984815050351  1.2421657445058227  3.6952683423670396
 -0.0000021514789208  2.4843352155126062 10.7660907223670392
 -0.0000021514789213  2.4843352155126048  1.9299244020419601
  2.1514984815050351  1.2421657445058232  9.0007467820419595
