Ir.10 (3,3,1) static
1.0
2.740553 0.000000 0.000000
1.370277 5.972897 0.000000
0.000000 0.000000 22.448140
Ir
14
direct
0.684421 0.631157 0.039332 Ir
0.473895 0.052209 0.316596 Ir
0.579158 0.841685 0.554252 Ir
0.526525 0.946947 0.435424 Ir
0.210736 0.578525 0.475033 Ir
0.894947 0.210105 0.514642 Ir
0.158106 0.683790 0.356205 Ir
0.842316 0.315369 0.395815 Ir
0.368632 0.262737 0.078941 Ir
0.052843 0.894316 0.118550 Ir
0.789684 0.420631 0.276987 Ir
0.737051 0.525895 0.158160 Ir
0.421262 0.157473 0.197769 Ir
0.105473 0.789053 0.237378 Ir
