Mo  S                                   
   1.00000000000000 
     0.0000000000000016   -3.1878531765840075    0.0000000000000000
     2.7607618344566713    1.5939265882920024    0.0000000000000000
     0.0000000000000000    0.0000000000000000   30.0000000000000000
   Mo   S    
     1   2    
Direct
  0.3333329999999961  0.6666670000000039  0.0709709087539163  
  0.6666670000000039  0.3333329999999961  0.1238081778454810  
  0.6666670000000039  0.3333329999999961  0.0182013318597234  
