Ir.10 (3,3,1) static
   1.00000000000000 
     2.7405529999999998    0.0000000000000000    0.0000000000000000
     1.3702770000000000    5.9728969999999997    0.0000000000000000
     0.0000000000000000    0.0000000000000000   22.4481399999999987
   Ir    
     14    
Direct
  0.6844209999999999  0.6311570000000000  0.0393320000000000  
  0.4738950000000000  0.0522090000000000  0.3165960000000000  
  0.5791580000000000  0.8416850000000000  0.5542520000000000  
  0.5265250000000000  0.9469470000000000  0.4354240000000000  
  0.2107360000000000  0.5785250000000000  0.4750330000000000  
  0.8949470000000000  0.2101050000000000  0.5146420000000000  
  0.1581060000000000  0.6837900000000000  0.3562050000000000  
  0.8423160000000000  0.3153690000000000  0.3958150000000000  
  0.3686320000000000  0.2627370000000000  0.0789410000000000  
  0.0528430000000000  0.8943160000000000  0.1185500000000000  
  0.7896840000000001  0.4206310000000000  0.2769870000000000  
  0.7370510000000000  0.5258950000000000  0.1581600000000000  
  0.4212620000000000  0.1574730000000000  0.1977690000000000  
  0.1054730000000000  0.7890530000000000  0.2373780000000000  
