Ir.10 (3,3,2) static
   1.00000000000000 
     2.7405529999999998    0.0000000000000000    0.0000000000000000
     0.0000000000000000   12.8543339999999997    0.0000000000000000
     0.0000000000000000    0.0000000000000000   23.2209259999999986
   Ir    
     32    
Direct
  0.0000000000000000  0.3169320000000000  0.9647000000000000  
  0.0000000000000000  0.6805680000000000  0.6088540000000000  
  0.0000000000000000  0.4078410000000000  0.6800230000000000  
  0.0000000000000000  0.5896590000000000  0.5021000000000000  
  0.0000000000000000  0.8623860000000000  0.4309310000000000  
  0.0000000000000000  0.9532950000000000  0.5376850000000000  
  0.0000000000000000  0.2260230000000000  0.4665150000000000  
  0.0000000000000000  0.0442040000000000  0.6444380000000000  
  0.0000000000000000  0.3169320000000000  0.5732690000000000  
  0.0000000000000000  0.5896590000000000  0.8935310000000000  
  0.0000000000000000  0.9532950000000000  0.9291150000000000  
  0.0000000000000000  0.2260220000000000  0.8579460000000000  
  0.0000000000000000  0.4987500000000000  0.7867769999999999  
  0.0000000000000000  0.7714770000000000  0.7156080000000000  
  0.0000000000000000  0.8623860000000000  0.8223620000000000  
  0.0000000000000000  0.1351130000000000  0.7511920000000000  
  0.5000000000000000  0.6805680000000000  0.8045690000000000  
  0.5000000000000000  0.5896590000000000  0.6978150000000000  
  0.5000000000000000  0.7714770000000000  0.5198920000000000  
  0.5000000000000000  0.2260220000000000  0.6622310000000000  
  0.5000000000000000  0.4987500000000000  0.5910620000000000  
  0.5000000000000000  0.1351130000000000  0.5554770000000000  
  0.5000000000000000  0.4078400000000000  0.4843080000000000  
  0.5000000000000000  0.8623860000000000  0.6266460000000000  
  0.5000000000000000  0.0442040000000000  0.4487230000000000  
  0.5000000000000000  0.9532950000000000  0.7334000000000001  
  0.5000000000000000  0.7714770000000000  0.9113230000000000  
  0.5000000000000000  0.3169310000000000  0.7689850000000000  
  0.5000000000000000  0.0442040000000000  0.8401540000000000  
  0.5000000000000000  0.4078400000000000  0.8757390000000000  
  0.5000000000000000  0.1351130000000000  0.9469080000000000  
  0.5000000000000000  0.4987500000000000  0.9824920000000000  
