 C 
   1.00000000000000 
     2.4680008987391253    0.0000000000000000    0.0000000000000000
     1.2340004493695627    2.1373514748709082    0.0000000000000000
     0.0000000000000000    0.0000000000000000   27.0000000000000000
   C    
     2    
Direct
  0.3333333333333001  0.3333333333333000  0.3701740740740740  
  0.6666666666666666  0.6666666666666660  0.3701740740740740  
