Cl Te Bi 
   1.00000000000000 
     4.3029926600000001    0.0000000000000000    0.0000000000000000
    -2.1514963299738867    3.7265009600184262    0.0000000000000000
     0.0000000000000009    0.0000000000000015   14.1416447600000001
   Cl   Te   Bi    
     2   2   2    
Direct
 -0.0000000000000000 -0.0000000000000000  0.0203240000000000  
  0.0000000000000000  0.0000000000000000  0.5203240000000000  
  0.6666670000000000  0.3333330000000000  0.2613040000000000  
  0.3333330000000000  0.6666670000000000  0.7613040000000000  
  0.3333330000000000  0.6666670000000000  0.1364710000000000  
  0.6666670000000000  0.3333330000000000  0.6364710000000000  
