 C 
 1.0000000000000000
     2.4680008987391253    0.0000000000000000    0.0000000000000000
     1.2340004493695627    2.1373514748709082    0.0000000000000000
     0.0000000000000000    0.0000000000000000    27.0000000000000000
  C
   2
Cartesian
  1.2340004493694394  0.7124504916235648  9.9946999999999999
  2.4680008987391244  1.4249009832472705  9.9946999999999999
