Ir.10 (3,3,2) static
1.0
2.740553 0.000000 0.000000
0.000000 12.854334 0.000000
0.000000 0.000000 23.220926
Ir
32
direct
0.000000 0.316932 0.964700 Ir
0.000000 0.680568 0.608854 Ir
0.000000 0.407841 0.680023 Ir
0.000000 0.589659 0.502100 Ir
0.000000 0.862386 0.430931 Ir
0.000000 0.953295 0.537685 Ir
0.000000 0.226023 0.466515 Ir
0.000000 0.044204 0.644438 Ir
0.000000 0.316932 0.573269 Ir
0.000000 0.589659 0.893531 Ir
0.000000 0.953295 0.929115 Ir
0.000000 0.226022 0.857946 Ir
0.000000 0.498750 0.786777 Ir
0.000000 0.771477 0.715608 Ir
0.000000 0.862386 0.822362 Ir
0.000000 0.135113 0.751192 Ir
0.500000 0.680568 0.804569 Ir
0.500000 0.589659 0.697815 Ir
0.500000 0.771477 0.519892 Ir
0.500000 0.226022 0.662231 Ir
0.500000 0.498750 0.591062 Ir
0.500000 0.135113 0.555477 Ir
0.500000 0.407840 0.484308 Ir
0.500000 0.862386 0.626646 Ir
0.500000 0.044204 0.448723 Ir
0.500000 0.953295 0.733400 Ir
0.500000 0.771477 0.911323 Ir
0.500000 0.316931 0.768985 Ir
0.500000 0.044204 0.840154 Ir
0.500000 0.407840 0.875739 Ir
0.500000 0.135113 0.946908 Ir
0.500000 0.498750 0.982492 Ir
