Ir.10 (1,1,1) static
   1.00000000000000 
     1.3702770000000000   -2.3733890000000000    0.0000000000000000
    -1.3702770000000000   -2.3733890000000000    0.0000000000000000
    -0.0000000000000000    0.0000000000000000  -23.4259139999999988
   Ir    
     6    
Direct
  0.3333340000000000  0.3333320000000000 -0.0952340000000000  
  1.0000000000000000  0.0000000000000000 -0.2862750000000000  
  0.6666660000000000  0.6666680000000000 -0.1907540000000000  
  0.6666660000000000  0.6666680000000000 -0.4773150000000000  
  1.0000000000000000  0.0000000000000000 -0.5728360000000000  
  0.3333340000000000  0.3333320000000000 -0.3817950000000000  
