Ir.10 (1,1,1) static
1.0
1.370277 -2.373389 0.000000
-1.370277 -2.373389 0.000000
-0.000000 0.000000 -23.425914
Ir
6
direct
0.333334 0.333332 -0.095234 Ir
1.000000 0.000000 -0.286275 Ir
0.666666 0.666668 -0.190754 Ir
0.666666 0.666668 -0.477315 Ir
1.000000 0.000000 -0.572836 Ir
0.333334 0.333332 -0.381795 Ir
